p cnf 7230 16
-6081 -7153 7169 0
7161 -7166 0
-6067 -7161 7165 0
6081 -7170 0
6067 -7166 0
-7169 7170 0
7167 7168 0
7151 -7168 0
-7151 -7167 0
-7165 7166 0
7163 7164 0
7145 -7164 0
-7145 -7163 0
7153 -7170 0
7155 -7172 0
7161 7162 0
